qbf_easy_train/easy_1240_SAT.qdimacs
p cnf 18 38
a 16 5 0
e 1 2 3 4 6 7 8 9 10 11 12 13 14 15 17 18 0
-1 2 -3 0
1 -2 -3 0
-1 -2 3 0
1 2 3 0
-4 2 -5 0
4 -2 -5 0
-4 -2 5 0
4 2 5 0
-8 -6 0
-8 -7 0
6 7 8 0
5 -8 -9 0
-5 8 -9 0
5 8 9 0
-5 -8 9 0
-12 10 0
-12 11 0
-10 -11 12 0
13 12 0
13 10 0
-12 -10 -13 0
9 -13 -14 0
-9 13 -14 0
9 13 14 0
-9 -13 14 0
16 -15 0
16 -6 0
15 6 -16 0
-17 14 0
-17 -16 0
-14 16 17 0
18 -3 0
18 -17 0
3 17 -18 0
-9 -1 -8 0
-11 5 8 -1 0
-2 -9 -3 4 0
18 0
