sat_easy_train/easy_1240_SAT.dimacs
p cnf 93 302
-1 2 -3 0
1 -2 -3 0
-1 -2 3 0
1 2 3 0
5 2 0
5 -4 0
-2 4 -5 0
-5 6 -7 0
5 -6 -7 0
-5 -6 7 0
5 6 7 0
-7 -8 -9 0
7 8 -9 0
-7 8 9 0
7 -8 9 0
10 3 0
10 9 0
-3 -9 -10 0
-5 -11 0
5 -11 0
12 10 0
12 -11 0
-10 11 -12 0
6 -4 -13 0
-6 4 -13 0
6 4 13 0
-6 -4 13 0
4 -2 -14 0
-4 2 -14 0
4 2 14 0
-4 -2 14 0
-8 -14 -15 0
8 14 -15 0
-8 14 15 0
8 -14 15 0
17 -16 0
17 6 0
16 -6 -17 0
-18 -15 0
-18 17 0
15 -17 18 0
19 -4 -20 0
-19 4 -20 0
19 4 20 0
-19 -4 20 0
-20 -14 -21 0
20 14 -21 0
-20 14 21 0
20 -14 21 0
22 18 0
22 -21 0
-18 21 -22 0
-7 -3 -23 0
7 3 -23 0
-7 3 23 0
7 -3 23 0
-24 -3 0
-24 19 0
3 -19 24 0
-25 23 0
-25 24 0
-23 -24 25 0
26 22 0
26 25 0
-22 -25 -26 0
27 13 0
27 -26 0
-13 26 -27 0
28 8 0
28 6 0
-8 -6 -28 0
29 5 -30 0
-29 -5 -30 0
29 -5 30 0
-29 5 30 0
-31 -30 0
-31 -7 0
30 7 31 0
-28 31 -32 0
28 -31 -32 0
-28 -31 32 0
28 31 32 0
33 19 0
33 -19 0
34 32 0
34 33 0
-32 -33 -34 0
35 -27 0
35 -34 0
27 34 -35 0
-12 35 -36 0
12 -35 -36 0
-12 -35 36 0
12 35 36 0
24 29 -37 0
-24 -29 -37 0
24 -29 37 0
-24 29 37 0
-38 -36 0
-38 37 0
36 -37 38 0
39 -23 0
39 -24 0
23 24 -39 0
-40 14 0
-40 -39 0
-14 39 40 0
41 17 0
41 -9 0
-17 9 -41 0
40 -41 -42 0
-40 41 -42 0
40 41 42 0
-40 -41 42 0
-15 -7 -43 0
15 7 -43 0
-15 7 43 0
15 -7 43 0
6 -44 -45 0
-6 44 -45 0
6 44 45 0
-6 -44 45 0
46 43 0
46 -45 0
-43 45 -46 0
47 16 0
47 20 0
-16 -20 -47 0
-4 6 -48 0
4 -6 -48 0
-4 -6 48 0
4 6 48 0
-49 -47 0
-49 -48 0
47 48 49 0
50 23 0
50 -49 0
-23 49 -50 0
-51 46 0
-51 -50 0
-46 50 51 0
-52 -42 0
-52 -51 0
42 51 52 0
55 53 0
55 54 0
-53 -54 -55 0
-57 55 0
-57 56 0
-55 -56 57 0
-58 16 0
-58 53 0
-16 -53 58 0
-59 58 0
-59 -14 0
-58 14 59 0
20 -59 -60 0
-20 59 -60 0
20 59 60 0
-20 -59 60 0
-61 -57 0
-61 -60 0
57 60 61 0
62 54 -63 0
-62 -54 -63 0
62 -54 63 0
-62 54 63 0
65 -63 0
65 64 0
63 -64 -65 0
-65 -6 -66 0
65 6 -66 0
-65 6 66 0
65 -6 66 0
67 -61 0
67 66 0
61 -66 -67 0
68 -19 0
68 -30 0
19 30 -68 0
-8 -23 -69 0
8 23 -69 0
-8 23 69 0
8 -23 69 0
-68 69 -70 0
68 -69 -70 0
-68 -69 70 0
68 69 70 0
-67 -70 -71 0
67 70 -71 0
-67 70 71 0
67 -70 71 0
23 30 -72 0
-23 -30 -72 0
23 -30 72 0
-23 30 72 0
-6 -16 -73 0
6 16 -73 0
-6 16 73 0
6 -16 73 0
-74 -73 0
-74 -29 0
73 29 74 0
72 74 -75 0
-72 -74 -75 0
72 -74 75 0
-72 74 75 0
-76 -71 0
-76 75 0
71 -75 76 0
77 52 0
77 76 0
-52 -76 -77 0
3 -56 -78 0
-3 56 -78 0
3 56 78 0
-3 -56 78 0
-73 7 -79 0
73 -7 -79 0
-73 -7 79 0
73 7 79 0
-9 -79 -80 0
9 79 -80 0
-9 79 80 0
9 -79 80 0
-81 -78 0
-81 -80 0
78 80 81 0
-82 77 0
-82 81 0
-77 -81 82 0
-57 15 -83 0
57 -15 -83 0
-57 -15 83 0
57 15 83 0
-82 -83 -84 0
82 83 -84 0
-82 83 84 0
82 -83 84 0
-85 15 -86 0
85 -15 -86 0
-85 -15 86 0
85 15 86 0
87 53 0
87 -53 0
88 86 0
88 -87 0
-86 87 -88 0
58 -89 -90 0
-58 89 -90 0
58 89 90 0
-58 -89 90 0
91 88 0
91 -90 0
-88 90 -91 0
84 91 -92 0
-84 -91 -92 0
84 -91 92 0
-84 91 92 0
-93 38 0
-93 92 0
-38 -92 93 0
-31 89 -37 41 0
-86 -68 -75 78 -5 35 0
30 17 -10 64 0
73 6 -10 0
-89 25 -10 0
54 8 30 61 -69 0
64 20 14 -37 0
-50 39 -40 -6 -34 42 0
-51 -3 -4 7 0
4 55 74 -19 0
56 -58 0
-78 -11 -62 30 61 0
76 -11 60 54 -1 0
-13 -53 91 0
-50 54 0
-40 -93 -32 -42 71 90 0
-77 37 0
-66 93 -69 0
-69 -12 36 49 0
8 -84 -90 82 -30 -16 0
67 -90 -84 0
41 55 10 -78 21 0
-35 62 -36 -82 -45 0
76 -61 -15 39 18 -69 0
70 69 11 -67 86 52 0
-51 65 78 53 0
76 48 6 -7 0
22 60 21 30 -17 0
-92 27 83 0
12 -65 -34 33 -9 -88 0
17 18 78 -76 11 45 0
-14 15 -55 81 -37 0
31 93 -76 -7 0
88 45 67 -87 85 21 0
-82 23 51 62 -64 0
-77 -91 9 37 83 0
-17 75 0
27 -74 -91 50 0
63 85 -62 -21 0
93 0
